/*********************************************
 * OPL 12.7.1.0 Data
 * Author: Marietta
 * Creation Date: 9 sty 2018 at 12:21:47
 *********************************************/


Nodes = {Seattle, LosAngeles, SanFrancisco, LasVegas, SaltLakeCity, ElPaso, Dallas, Houston, Tulsa, Minneapolis, KansasCity, Denver, Chicago, Indianapolis, Detroit, StLouis, Nashville, Cleveland, NewYork, Albany, Charlotte, NewOrleans, Boston, Atlanta, Miami, WashingtonDC};

Arcs = {<Seattle,LosAngeles>, <Seattle,SanFrancisco>, <Seattle,LasVegas>, <Seattle,SaltLakeCity>, <Seattle,ElPaso>, <Seattle,Dallas>, <Seattle,Houston>, <Seattle,Tulsa>, <Seattle,Minneapolis>, <Seattle,KansasCity>, <Seattle,Denver>, <Seattle,Chicago>, <Seattle,Indianapolis>, <Seattle,Detroit>, <Seattle,StLouis>, <Seattle,Nashville>, <Seattle,Cleveland>, <Seattle,NewYork>, <Seattle,Albany>, <Seattle,Charlotte>, <Seattle,NewOrleans>, <Seattle,Boston>, <Seattle,Atlanta>, <Seattle,Miami>, <Seattle,WashingtonDC>, <LosAngeles,Seattle>, <LosAngeles,SanFrancisco>, <LosAngeles,LasVegas>, <LosAngeles,SaltLakeCity>, <LosAngeles,ElPaso>, <LosAngeles,Dallas>, <LosAngeles,Houston>, <LosAngeles,Tulsa>, <LosAngeles,Minneapolis>, <LosAngeles,KansasCity>, <LosAngeles,Denver>, <LosAngeles,Chicago>, <LosAngeles,Indianapolis>, <LosAngeles,Detroit>, <LosAngeles,StLouis>, <LosAngeles,Nashville>, <LosAngeles,Cleveland>, <LosAngeles,NewYork>, <LosAngeles,Albany>, <LosAngeles,Charlotte>, <LosAngeles,NewOrleans>, <LosAngeles,Boston>, <LosAngeles,Atlanta>, <LosAngeles,Miami>, <LosAngeles,WashingtonDC>, <SanFrancisco,Seattle>, <SanFrancisco,LosAngeles>, <SanFrancisco,LasVegas>, <SanFrancisco,SaltLakeCity>, <SanFrancisco,ElPaso>, <SanFrancisco,Dallas>, <SanFrancisco,Houston>, <SanFrancisco,Tulsa>, <SanFrancisco,Minneapolis>, <SanFrancisco,KansasCity>, <SanFrancisco,Denver>, <SanFrancisco,Chicago>, <SanFrancisco,Indianapolis>, <SanFrancisco,Detroit>, <SanFrancisco,StLouis>, <SanFrancisco,Nashville>, <SanFrancisco,Cleveland>, <SanFrancisco,NewYork>, <SanFrancisco,Albany>, <SanFrancisco,Charlotte>, <SanFrancisco,NewOrleans>, <SanFrancisco,Boston>, <SanFrancisco,Atlanta>, <SanFrancisco,Miami>, <SanFrancisco,WashingtonDC>, <LasVegas,Seattle>, <LasVegas,LosAngeles>, <LasVegas,SanFrancisco>, <LasVegas,SaltLakeCity>, <LasVegas,ElPaso>, <LasVegas,Dallas>, <LasVegas,Houston>, <LasVegas,Tulsa>, <LasVegas,Minneapolis>, <LasVegas,KansasCity>, <LasVegas,Denver>, <LasVegas,Chicago>, <LasVegas,Indianapolis>, <LasVegas,Detroit>, <LasVegas,StLouis>, <LasVegas,Nashville>, <LasVegas,Cleveland>, <LasVegas,NewYork>, <LasVegas,Albany>, <LasVegas,Charlotte>, <LasVegas,NewOrleans>, <LasVegas,Boston>, <LasVegas,Atlanta>, <LasVegas,Miami>, <LasVegas,WashingtonDC>, <SaltLakeCity,Seattle>, <SaltLakeCity,LosAngeles>, <SaltLakeCity,SanFrancisco>, <SaltLakeCity,LasVegas>, <SaltLakeCity,ElPaso>, <SaltLakeCity,Dallas>, <SaltLakeCity,Houston>, <SaltLakeCity,Tulsa>, <SaltLakeCity,Minneapolis>, <SaltLakeCity,KansasCity>, <SaltLakeCity,Denver>, <SaltLakeCity,Chicago>, <SaltLakeCity,Indianapolis>, <SaltLakeCity,Detroit>, <SaltLakeCity,StLouis>, <SaltLakeCity,Nashville>, <SaltLakeCity,Cleveland>, <SaltLakeCity,NewYork>, <SaltLakeCity,Albany>, <SaltLakeCity,Charlotte>, <SaltLakeCity,NewOrleans>, <SaltLakeCity,Boston>, <SaltLakeCity,Atlanta>, <SaltLakeCity,Miami>, <SaltLakeCity,WashingtonDC>, <ElPaso,Seattle>, <ElPaso,LosAngeles>, <ElPaso,SanFrancisco>, <ElPaso,LasVegas>, <ElPaso,SaltLakeCity>, <ElPaso,Dallas>, <ElPaso,Houston>, <ElPaso,Tulsa>, <ElPaso,Minneapolis>, <ElPaso,KansasCity>, <ElPaso,Denver>, <ElPaso,Chicago>, <ElPaso,Indianapolis>, <ElPaso,Detroit>, <ElPaso,StLouis>, <ElPaso,Nashville>, <ElPaso,Cleveland>, <ElPaso,NewYork>, <ElPaso,Albany>, <ElPaso,Charlotte>, <ElPaso,NewOrleans>, <ElPaso,Boston>, <ElPaso,Atlanta>, <ElPaso,Miami>, <ElPaso,WashingtonDC>, <Dallas,Seattle>, <Dallas,LosAngeles>, <Dallas,SanFrancisco>, <Dallas,LasVegas>, <Dallas,SaltLakeCity>, <Dallas,ElPaso>, <Dallas,Houston>, <Dallas,Tulsa>, <Dallas,Minneapolis>, <Dallas,KansasCity>, <Dallas,Denver>, <Dallas,Chicago>, <Dallas,Indianapolis>, <Dallas,Detroit>, <Dallas,StLouis>, <Dallas,Nashville>, <Dallas,Cleveland>, <Dallas,NewYork>, <Dallas,Albany>, <Dallas,Charlotte>, <Dallas,NewOrleans>, <Dallas,Boston>, <Dallas,Atlanta>, <Dallas,Miami>, <Dallas,WashingtonDC>, <Houston,Seattle>, <Houston,LosAngeles>, <Houston,SanFrancisco>, <Houston,LasVegas>, <Houston,SaltLakeCity>, <Houston,ElPaso>, <Houston,Dallas>, <Houston,Tulsa>, <Houston,Minneapolis>, <Houston,KansasCity>, <Houston,Denver>, <Houston,Chicago>, <Houston,Indianapolis>, <Houston,Detroit>, <Houston,StLouis>, <Houston,Nashville>, <Houston,Cleveland>, <Houston,NewYork>, <Houston,Albany>, <Houston,Charlotte>, <Houston,NewOrleans>, <Houston,Boston>, <Houston,Atlanta>, <Houston,Miami>, <Houston,WashingtonDC>, <Tulsa,Seattle>, <Tulsa,LosAngeles>, <Tulsa,SanFrancisco>, <Tulsa,LasVegas>, <Tulsa,SaltLakeCity>, <Tulsa,ElPaso>, <Tulsa,Dallas>, <Tulsa,Houston>, <Tulsa,Minneapolis>, <Tulsa,KansasCity>, <Tulsa,Denver>, <Tulsa,Chicago>, <Tulsa,Indianapolis>, <Tulsa,Detroit>, <Tulsa,StLouis>, <Tulsa,Nashville>, <Tulsa,Cleveland>, <Tulsa,NewYork>, <Tulsa,Albany>, <Tulsa,Charlotte>, <Tulsa,NewOrleans>, <Tulsa,Boston>, <Tulsa,Atlanta>, <Tulsa,Miami>, <Tulsa,WashingtonDC>, <Minneapolis,Seattle>, <Minneapolis,LosAngeles>, <Minneapolis,SanFrancisco>, <Minneapolis,LasVegas>, <Minneapolis,SaltLakeCity>, <Minneapolis,ElPaso>, <Minneapolis,Dallas>, <Minneapolis,Houston>, <Minneapolis,Tulsa>, <Minneapolis,KansasCity>, <Minneapolis,Denver>, <Minneapolis,Chicago>, <Minneapolis,Indianapolis>, <Minneapolis,Detroit>, <Minneapolis,StLouis>, <Minneapolis,Nashville>, <Minneapolis,Cleveland>, <Minneapolis,NewYork>, <Minneapolis,Albany>, <Minneapolis,Charlotte>, <Minneapolis,NewOrleans>, <Minneapolis,Boston>, <Minneapolis,Atlanta>, <Minneapolis,Miami>, <Minneapolis,WashingtonDC>, <KansasCity,Seattle>, <KansasCity,LosAngeles>, <KansasCity,SanFrancisco>, <KansasCity,LasVegas>, <KansasCity,SaltLakeCity>, <KansasCity,ElPaso>, <KansasCity,Dallas>, <KansasCity,Houston>, <KansasCity,Tulsa>, <KansasCity,Minneapolis>, <KansasCity,Denver>, <KansasCity,Chicago>, <KansasCity,Indianapolis>, <KansasCity,Detroit>, <KansasCity,StLouis>, <KansasCity,Nashville>, <KansasCity,Cleveland>, <KansasCity,NewYork>, <KansasCity,Albany>, <KansasCity,Charlotte>, <KansasCity,NewOrleans>, <KansasCity,Boston>, <KansasCity,Atlanta>, <KansasCity,Miami>, <KansasCity,WashingtonDC>, <Denver,Seattle>, <Denver,LosAngeles>, <Denver,SanFrancisco>, <Denver,LasVegas>, <Denver,SaltLakeCity>, <Denver,ElPaso>, <Denver,Dallas>, <Denver,Houston>, <Denver,Tulsa>, <Denver,Minneapolis>, <Denver,KansasCity>, <Denver,Chicago>, <Denver,Indianapolis>, <Denver,Detroit>, <Denver,StLouis>, <Denver,Nashville>, <Denver,Cleveland>, <Denver,NewYork>, <Denver,Albany>, <Denver,Charlotte>, <Denver,NewOrleans>, <Denver,Boston>, <Denver,Atlanta>, <Denver,Miami>, <Denver,WashingtonDC>, <Chicago,Seattle>, <Chicago,LosAngeles>, <Chicago,SanFrancisco>, <Chicago,LasVegas>, <Chicago,SaltLakeCity>, <Chicago,ElPaso>, <Chicago,Dallas>, <Chicago,Houston>, <Chicago,Tulsa>, <Chicago,Minneapolis>, <Chicago,KansasCity>, <Chicago,Denver>, <Chicago,Indianapolis>, <Chicago,Detroit>, <Chicago,StLouis>, <Chicago,Nashville>, <Chicago,Cleveland>, <Chicago,NewYork>, <Chicago,Albany>, <Chicago,Charlotte>, <Chicago,NewOrleans>, <Chicago,Boston>, <Chicago,Atlanta>, <Chicago,Miami>, <Chicago,WashingtonDC>, <Indianapolis,Seattle>, <Indianapolis,LosAngeles>, <Indianapolis,SanFrancisco>, <Indianapolis,LasVegas>, <Indianapolis,SaltLakeCity>, <Indianapolis,ElPaso>, <Indianapolis,Dallas>, <Indianapolis,Houston>, <Indianapolis,Tulsa>, <Indianapolis,Minneapolis>, <Indianapolis,KansasCity>, <Indianapolis,Denver>, <Indianapolis,Chicago>, <Indianapolis,Detroit>, <Indianapolis,StLouis>, <Indianapolis,Nashville>, <Indianapolis,Cleveland>, <Indianapolis,NewYork>, <Indianapolis,Albany>, <Indianapolis,Charlotte>, <Indianapolis,NewOrleans>, <Indianapolis,Boston>, <Indianapolis,Atlanta>, <Indianapolis,Miami>, <Indianapolis,WashingtonDC>, <Detroit,Seattle>, <Detroit,LosAngeles>, <Detroit,SanFrancisco>, <Detroit,LasVegas>, <Detroit,SaltLakeCity>, <Detroit,ElPaso>, <Detroit,Dallas>, <Detroit,Houston>, <Detroit,Tulsa>, <Detroit,Minneapolis>, <Detroit,KansasCity>, <Detroit,Denver>, <Detroit,Chicago>, <Detroit,Indianapolis>, <Detroit,StLouis>, <Detroit,Nashville>, <Detroit,Cleveland>, <Detroit,NewYork>, <Detroit,Albany>, <Detroit,Charlotte>, <Detroit,NewOrleans>, <Detroit,Boston>, <Detroit,Atlanta>, <Detroit,Miami>, <Detroit,WashingtonDC>, <StLouis,Seattle>, <StLouis,LosAngeles>, <StLouis,SanFrancisco>, <StLouis,LasVegas>, <StLouis,SaltLakeCity>, <StLouis,ElPaso>, <StLouis,Dallas>, <StLouis,Houston>, <StLouis,Tulsa>, <StLouis,Minneapolis>, <StLouis,KansasCity>, <StLouis,Denver>, <StLouis,Chicago>, <StLouis,Indianapolis>, <StLouis,Detroit>, <StLouis,Nashville>, <StLouis,Cleveland>, <StLouis,NewYork>, <StLouis,Albany>, <StLouis,Charlotte>, <StLouis,NewOrleans>, <StLouis,Boston>, <StLouis,Atlanta>, <StLouis,Miami>, <StLouis,WashingtonDC>, <Nashville,Seattle>, <Nashville,LosAngeles>, <Nashville,SanFrancisco>, <Nashville,LasVegas>, <Nashville,SaltLakeCity>, <Nashville,ElPaso>, <Nashville,Dallas>, <Nashville,Houston>, <Nashville,Tulsa>, <Nashville,Minneapolis>, <Nashville,KansasCity>, <Nashville,Denver>, <Nashville,Chicago>, <Nashville,Indianapolis>, <Nashville,Detroit>, <Nashville,StLouis>, <Nashville,Cleveland>, <Nashville,NewYork>, <Nashville,Albany>, <Nashville,Charlotte>, <Nashville,NewOrleans>, <Nashville,Boston>, <Nashville,Atlanta>, <Nashville,Miami>, <Nashville,WashingtonDC>, <Cleveland,Seattle>, <Cleveland,LosAngeles>, <Cleveland,SanFrancisco>, <Cleveland,LasVegas>, <Cleveland,SaltLakeCity>, <Cleveland,ElPaso>, <Cleveland,Dallas>, <Cleveland,Houston>, <Cleveland,Tulsa>, <Cleveland,Minneapolis>, <Cleveland,KansasCity>, <Cleveland,Denver>, <Cleveland,Chicago>, <Cleveland,Indianapolis>, <Cleveland,Detroit>, <Cleveland,StLouis>, <Cleveland,Nashville>, <Cleveland,NewYork>, <Cleveland,Albany>, <Cleveland,Charlotte>, <Cleveland,NewOrleans>, <Cleveland,Boston>, <Cleveland,Atlanta>, <Cleveland,Miami>, <Cleveland,WashingtonDC>, <NewYork,Seattle>, <NewYork,LosAngeles>, <NewYork,SanFrancisco>, <NewYork,LasVegas>, <NewYork,SaltLakeCity>, <NewYork,ElPaso>, <NewYork,Dallas>, <NewYork,Houston>, <NewYork,Tulsa>, <NewYork,Minneapolis>, <NewYork,KansasCity>, <NewYork,Denver>, <NewYork,Chicago>, <NewYork,Indianapolis>, <NewYork,Detroit>, <NewYork,StLouis>, <NewYork,Nashville>, <NewYork,Cleveland>, <NewYork,Albany>, <NewYork,Charlotte>, <NewYork,NewOrleans>, <NewYork,Boston>, <NewYork,Atlanta>, <NewYork,Miami>, <NewYork,WashingtonDC>, <Albany,Seattle>, <Albany,LosAngeles>, <Albany,SanFrancisco>, <Albany,LasVegas>, <Albany,SaltLakeCity>, <Albany,ElPaso>, <Albany,Dallas>, <Albany,Houston>, <Albany,Tulsa>, <Albany,Minneapolis>, <Albany,KansasCity>, <Albany,Denver>, <Albany,Chicago>, <Albany,Indianapolis>, <Albany,Detroit>, <Albany,StLouis>, <Albany,Nashville>, <Albany,Cleveland>, <Albany,NewYork>, <Albany,Charlotte>, <Albany,NewOrleans>, <Albany,Boston>, <Albany,Atlanta>, <Albany,Miami>, <Albany,WashingtonDC>, <Charlotte,Seattle>, <Charlotte,LosAngeles>, <Charlotte,SanFrancisco>, <Charlotte,LasVegas>, <Charlotte,SaltLakeCity>, <Charlotte,ElPaso>, <Charlotte,Dallas>, <Charlotte,Houston>, <Charlotte,Tulsa>, <Charlotte,Minneapolis>, <Charlotte,KansasCity>, <Charlotte,Denver>, <Charlotte,Chicago>, <Charlotte,Indianapolis>, <Charlotte,Detroit>, <Charlotte,StLouis>, <Charlotte,Nashville>, <Charlotte,Cleveland>, <Charlotte,NewYork>, <Charlotte,Albany>, <Charlotte,NewOrleans>, <Charlotte,Boston>, <Charlotte,Atlanta>, <Charlotte,Miami>, <Charlotte,WashingtonDC>, <NewOrleans,Seattle>, <NewOrleans,LosAngeles>, <NewOrleans,SanFrancisco>, <NewOrleans,LasVegas>, <NewOrleans,SaltLakeCity>, <NewOrleans,ElPaso>, <NewOrleans,Dallas>, <NewOrleans,Houston>, <NewOrleans,Tulsa>, <NewOrleans,Minneapolis>, <NewOrleans,KansasCity>, <NewOrleans,Denver>, <NewOrleans,Chicago>, <NewOrleans,Indianapolis>, <NewOrleans,Detroit>, <NewOrleans,StLouis>, <NewOrleans,Nashville>, <NewOrleans,Cleveland>, <NewOrleans,NewYork>, <NewOrleans,Albany>, <NewOrleans,Charlotte>, <NewOrleans,Boston>, <NewOrleans,Atlanta>, <NewOrleans,Miami>, <NewOrleans,WashingtonDC>, <Boston,Seattle>, <Boston,LosAngeles>, <Boston,SanFrancisco>, <Boston,LasVegas>, <Boston,SaltLakeCity>, <Boston,ElPaso>, <Boston,Dallas>, <Boston,Houston>, <Boston,Tulsa>, <Boston,Minneapolis>, <Boston,KansasCity>, <Boston,Denver>, <Boston,Chicago>, <Boston,Indianapolis>, <Boston,Detroit>, <Boston,StLouis>, <Boston,Nashville>, <Boston,Cleveland>, <Boston,NewYork>, <Boston,Albany>, <Boston,Charlotte>, <Boston,NewOrleans>, <Boston,Atlanta>, <Boston,Miami>, <Boston,WashingtonDC>, <Atlanta,Seattle>, <Atlanta,LosAngeles>, <Atlanta,SanFrancisco>, <Atlanta,LasVegas>, <Atlanta,SaltLakeCity>, <Atlanta,ElPaso>, <Atlanta,Dallas>, <Atlanta,Houston>, <Atlanta,Tulsa>, <Atlanta,Minneapolis>, <Atlanta,KansasCity>, <Atlanta,Denver>, <Atlanta,Chicago>, <Atlanta,Indianapolis>, <Atlanta,Detroit>, <Atlanta,StLouis>, <Atlanta,Nashville>, <Atlanta,Cleveland>, <Atlanta,NewYork>, <Atlanta,Albany>, <Atlanta,Charlotte>, <Atlanta,NewOrleans>, <Atlanta,Boston>, <Atlanta,Miami>, <Atlanta,WashingtonDC>, <Miami,Seattle>, <Miami,LosAngeles>, <Miami,SanFrancisco>, <Miami,LasVegas>, <Miami,SaltLakeCity>, <Miami,ElPaso>, <Miami,Dallas>, <Miami,Houston>, <Miami,Tulsa>, <Miami,Minneapolis>, <Miami,KansasCity>, <Miami,Denver>, <Miami,Chicago>, <Miami,Indianapolis>, <Miami,Detroit>, <Miami,StLouis>, <Miami,Nashville>, <Miami,Cleveland>, <Miami,NewYork>, <Miami,Albany>, <Miami,Charlotte>, <Miami,NewOrleans>, <Miami,Boston>, <Miami,Atlanta>, <Miami,WashingtonDC>, <WashingtonDC,Seattle>, <WashingtonDC,LosAngeles>, <WashingtonDC,SanFrancisco>, <WashingtonDC,LasVegas>, <WashingtonDC,SaltLakeCity>, <WashingtonDC,ElPaso>, <WashingtonDC,Dallas>, <WashingtonDC,Houston>, <WashingtonDC,Tulsa>, <WashingtonDC,Minneapolis>, <WashingtonDC,KansasCity>, <WashingtonDC,Denver>, <WashingtonDC,Chicago>, <WashingtonDC,Indianapolis>, <WashingtonDC,Detroit>, <WashingtonDC,StLouis>, <WashingtonDC,Nashville>, <WashingtonDC,Cleveland>, <WashingtonDC,NewYork>, <WashingtonDC,Albany>, <WashingtonDC,Charlotte>, <WashingtonDC,NewOrleans>, <WashingtonDC,Boston>, <WashingtonDC,Atlanta>, <WashingtonDC,Miami>};

Capacity = [10000 10000 10000 10000 10000 10000 10000 10000 10000 10000 10000 10000 10000 10000 10000 10000 10000 10000 10000 10000 10000 10000 10000 10000 10000 10000 10000 10000 10000 10000 10000 10000 10000 10000 10000 10000 10000 10000 10000 10000 10000 10000 10000 10000 10000 10000 10000 10000 10000 10000 10000 10000 10000 10000 10000 10000 10000 10000 10000 10000 10000 10000 10000 10000 10000 10000 10000 10000 10000 10000 10000 10000 10000 10000 10000 10000 10000 10000 10000 10000 10000 10000 10000 10000 10000 10000 10000 10000 10000 10000 10000 10000 10000 10000 10000 10000 10000 10000 10000 10000 10000 10000 10000 10000 10000 10000 10000 10000 10000 10000 10000 10000 10000 10000 10000 10000 10000 10000 10000 10000 10000 10000 10000 10000 10000 10000 10000 10000 10000 10000 10000 10000 10000 10000 10000 10000 10000 10000 10000 10000 10000 10000 10000 10000 10000 10000 10000 10000 10000 10000 10000 10000 10000 10000 10000 10000 10000 10000 10000 10000 10000 10000 10000 10000 10000 10000 10000 10000 10000 10000 10000 10000 10000 10000 10000 10000 10000 10000 10000 10000 10000 10000 10000 10000 10000 10000 10000 10000 10000 10000 10000 10000 10000 10000 10000 10000 10000 10000 10000 10000 10000 10000 10000 10000 10000 10000 10000 10000 10000 10000 10000 10000 10000 10000 10000 10000 10000 10000 10000 10000 10000 10000 10000 10000 10000 10000 10000 10000 10000 10000 10000 10000 10000 10000 10000 10000 10000 10000 10000 10000 10000 10000 10000 10000 10000 10000 10000 10000 10000 10000 10000 10000 10000 10000 10000 10000 10000 10000 10000 10000 10000 10000 10000 10000 10000 10000 10000 10000 10000 10000 10000 10000 10000 10000 10000 10000 10000 10000 10000 10000 10000 10000 10000 10000 10000 10000 10000 10000 10000 10000 10000 10000 10000 10000 10000 10000 10000 10000 10000 10000 10000 10000 10000 10000 10000 10000 10000 10000 10000 10000 10000 10000 10000 10000 10000 10000 10000 10000 10000 10000 10000 10000 10000 10000 10000 10000 10000 10000 10000 10000 10000 10000 10000 10000 10000 10000 10000 10000 10000 10000 10000 10000 10000 10000 10000 10000 10000 10000 10000 10000 10000 10000 10000 10000 10000 10000 10000 10000 10000 10000 10000 10000 10000 10000 10000 10000 10000 10000 10000 10000 10000 10000 10000 10000 10000 10000 10000 10000 10000 10000 10000 10000 10000 10000 10000 10000 10000 10000 10000 10000 10000 10000 10000 10000 10000 10000 10000 10000 10000 10000 10000 10000 10000 10000 10000 10000 10000 10000 10000 10000 10000 10000 10000 10000 10000 10000 10000 10000 10000 10000 10000 10000 10000 10000 10000 10000 10000 10000 10000 10000 10000 10000 10000 10000 10000 10000 10000 10000 10000 10000 10000 10000 10000 10000 10000 10000 10000 10000 10000 10000 10000 10000 10000 10000 10000 10000 10000 10000 10000 10000 10000 10000 10000 10000 10000 10000 10000 10000 10000 10000 10000 10000 10000 10000 10000 10000 10000 10000 10000 10000 10000 10000 10000 10000 10000 10000 10000 10000 10000 10000 10000 10000 10000 10000 10000 10000 10000 10000 10000 10000 10000 10000 10000 10000 10000 10000 10000 10000 10000 10000 10000 10000 10000 10000 10000 10000 10000 10000 10000 10000 10000 10000 10000 10000 10000 10000 10000 10000 10000 10000 10000 10000 10000 10000 10000 10000 10000 10000 10000 10000 10000 10000 10000 10000 10000 10000 10000 10000 10000 10000 10000 10000 10000 10000 10000 10000 10000 10000 10000 10000 10000 10000 10000 10000 10000 10000 10000 10000 10000 10000 10000 10000 10000 10000 10000 10000 10000 10000 10000 10000 10000 10000 10000 10000 10000 10000 10000 10000 10000 10000 10000 10000 10000 10000 10000 10000 10000 10000 10000 10000 10000 10000 10000 10000 10000 10000 10000 10000 10000 10000 10000 10000 10000 10000 10000 10000 10000 10000 10000 10000 10000 10000 10000 10000 10000 10000 10000 10000 10000 10000 10000 10000 10000 10000 10000 10000 10000 10000 10000 10000 10000 10000 10000 10000 10000 10000 10000 10000 10000 10000];

Demands = {<Seattle,LosAngeles>, <Seattle,SanFrancisco>, <Seattle,LasVegas>, <Seattle,SaltLakeCity>, <Seattle,ElPaso>, <Seattle,Dallas>, <Seattle,Houston>, <Seattle,Tulsa>, <Seattle,Minneapolis>, <Seattle,KansasCity>, <Seattle,Denver>, <Seattle,Chicago>, <Seattle,Indianapolis>, <Seattle,Detroit>, <Seattle,StLouis>, <Seattle,Nashville>, <Seattle,Cleveland>, <Seattle,NewYork>, <Seattle,Albany>, <Seattle,Charlotte>, <Seattle,NewOrleans>, <Seattle,Boston>, <Seattle,Atlanta>, <Seattle,Miami>, <Seattle,WashingtonDC>, <LosAngeles,Seattle>, <LosAngeles,SanFrancisco>, <LosAngeles,LasVegas>, <LosAngeles,SaltLakeCity>, <LosAngeles,ElPaso>, <LosAngeles,Dallas>, <LosAngeles,Houston>, <LosAngeles,Tulsa>, <LosAngeles,Minneapolis>, <LosAngeles,KansasCity>, <LosAngeles,Denver>, <LosAngeles,Chicago>, <LosAngeles,Indianapolis>, <LosAngeles,Detroit>, <LosAngeles,StLouis>, <LosAngeles,Nashville>, <LosAngeles,Cleveland>, <LosAngeles,NewYork>, <LosAngeles,Albany>, <LosAngeles,Charlotte>, <LosAngeles,NewOrleans>, <LosAngeles,Boston>, <LosAngeles,Atlanta>, <LosAngeles,Miami>, <LosAngeles,WashingtonDC>, <SanFrancisco,Seattle>, <SanFrancisco,LosAngeles>, <SanFrancisco,LasVegas>, <SanFrancisco,SaltLakeCity>, <SanFrancisco,ElPaso>, <SanFrancisco,Dallas>, <SanFrancisco,Houston>, <SanFrancisco,Tulsa>, <SanFrancisco,Minneapolis>, <SanFrancisco,KansasCity>, <SanFrancisco,Denver>, <SanFrancisco,Chicago>, <SanFrancisco,Indianapolis>, <SanFrancisco,Detroit>, <SanFrancisco,StLouis>, <SanFrancisco,Nashville>, <SanFrancisco,Cleveland>, <SanFrancisco,NewYork>, <SanFrancisco,Albany>, <SanFrancisco,Charlotte>, <SanFrancisco,NewOrleans>, <SanFrancisco,Boston>, <SanFrancisco,Atlanta>, <SanFrancisco,Miami>, <SanFrancisco,WashingtonDC>, <LasVegas,Seattle>, <LasVegas,LosAngeles>, <LasVegas,SanFrancisco>, <LasVegas,SaltLakeCity>, <LasVegas,ElPaso>, <LasVegas,Dallas>, <LasVegas,Houston>, <LasVegas,Tulsa>, <LasVegas,Minneapolis>, <LasVegas,KansasCity>, <LasVegas,Denver>, <LasVegas,Chicago>, <LasVegas,Indianapolis>, <LasVegas,Detroit>, <LasVegas,StLouis>, <LasVegas,Nashville>, <LasVegas,Cleveland>, <LasVegas,NewYork>, <LasVegas,Albany>, <LasVegas,Charlotte>, <LasVegas,NewOrleans>, <LasVegas,Boston>, <LasVegas,Atlanta>, <LasVegas,Miami>, <LasVegas,WashingtonDC>, <SaltLakeCity,Seattle>, <SaltLakeCity,LosAngeles>, <SaltLakeCity,SanFrancisco>, <SaltLakeCity,LasVegas>, <SaltLakeCity,ElPaso>, <SaltLakeCity,Dallas>, <SaltLakeCity,Houston>, <SaltLakeCity,Tulsa>, <SaltLakeCity,Minneapolis>, <SaltLakeCity,KansasCity>, <SaltLakeCity,Denver>, <SaltLakeCity,Chicago>, <SaltLakeCity,Indianapolis>, <SaltLakeCity,Detroit>, <SaltLakeCity,StLouis>, <SaltLakeCity,Nashville>, <SaltLakeCity,Cleveland>, <SaltLakeCity,NewYork>, <SaltLakeCity,Albany>, <SaltLakeCity,Charlotte>, <SaltLakeCity,NewOrleans>, <SaltLakeCity,Boston>, <SaltLakeCity,Atlanta>, <SaltLakeCity,Miami>, <SaltLakeCity,WashingtonDC>, <ElPaso,Seattle>, <ElPaso,LosAngeles>, <ElPaso,SanFrancisco>, <ElPaso,LasVegas>, <ElPaso,SaltLakeCity>, <ElPaso,Dallas>, <ElPaso,Houston>, <ElPaso,Tulsa>, <ElPaso,Minneapolis>, <ElPaso,KansasCity>, <ElPaso,Denver>, <ElPaso,Chicago>, <ElPaso,Indianapolis>, <ElPaso,Detroit>, <ElPaso,StLouis>, <ElPaso,Nashville>, <ElPaso,Cleveland>, <ElPaso,NewYork>, <ElPaso,Albany>, <ElPaso,Charlotte>, <ElPaso,NewOrleans>, <ElPaso,Boston>, <ElPaso,Atlanta>, <ElPaso,Miami>, <ElPaso,WashingtonDC>, <Dallas,Seattle>, <Dallas,LosAngeles>, <Dallas,SanFrancisco>, <Dallas,LasVegas>, <Dallas,SaltLakeCity>, <Dallas,ElPaso>, <Dallas,Houston>, <Dallas,Tulsa>, <Dallas,Minneapolis>, <Dallas,KansasCity>, <Dallas,Denver>, <Dallas,Chicago>, <Dallas,Indianapolis>, <Dallas,Detroit>, <Dallas,StLouis>, <Dallas,Nashville>, <Dallas,Cleveland>, <Dallas,NewYork>, <Dallas,Albany>, <Dallas,Charlotte>, <Dallas,NewOrleans>, <Dallas,Boston>, <Dallas,Atlanta>, <Dallas,Miami>, <Dallas,WashingtonDC>, <Houston,Seattle>, <Houston,LosAngeles>, <Houston,SanFrancisco>, <Houston,LasVegas>, <Houston,SaltLakeCity>, <Houston,ElPaso>, <Houston,Dallas>, <Houston,Tulsa>, <Houston,Minneapolis>, <Houston,KansasCity>, <Houston,Denver>, <Houston,Chicago>, <Houston,Indianapolis>, <Houston,Detroit>, <Houston,StLouis>, <Houston,Nashville>, <Houston,Cleveland>, <Houston,NewYork>, <Houston,Albany>, <Houston,Charlotte>, <Houston,NewOrleans>, <Houston,Boston>, <Houston,Atlanta>, <Houston,Miami>, <Houston,WashingtonDC>, <Tulsa,Seattle>, <Tulsa,LosAngeles>, <Tulsa,SanFrancisco>, <Tulsa,LasVegas>, <Tulsa,SaltLakeCity>, <Tulsa,ElPaso>, <Tulsa,Dallas>, <Tulsa,Houston>, <Tulsa,Minneapolis>, <Tulsa,KansasCity>, <Tulsa,Denver>, <Tulsa,Chicago>, <Tulsa,Indianapolis>, <Tulsa,Detroit>, <Tulsa,StLouis>, <Tulsa,Nashville>, <Tulsa,Cleveland>, <Tulsa,NewYork>, <Tulsa,Albany>, <Tulsa,Charlotte>, <Tulsa,NewOrleans>, <Tulsa,Boston>, <Tulsa,Atlanta>, <Tulsa,Miami>, <Tulsa,WashingtonDC>, <Minneapolis,Seattle>, <Minneapolis,LosAngeles>, <Minneapolis,SanFrancisco>, <Minneapolis,LasVegas>, <Minneapolis,SaltLakeCity>, <Minneapolis,ElPaso>, <Minneapolis,Dallas>, <Minneapolis,Houston>, <Minneapolis,Tulsa>, <Minneapolis,KansasCity>, <Minneapolis,Denver>, <Minneapolis,Chicago>, <Minneapolis,Indianapolis>, <Minneapolis,Detroit>, <Minneapolis,StLouis>, <Minneapolis,Nashville>, <Minneapolis,Cleveland>, <Minneapolis,NewYork>, <Minneapolis,Albany>, <Minneapolis,Charlotte>, <Minneapolis,NewOrleans>, <Minneapolis,Boston>, <Minneapolis,Atlanta>, <Minneapolis,Miami>, <Minneapolis,WashingtonDC>, <KansasCity,Seattle>, <KansasCity,LosAngeles>, <KansasCity,SanFrancisco>, <KansasCity,LasVegas>, <KansasCity,SaltLakeCity>, <KansasCity,ElPaso>, <KansasCity,Dallas>, <KansasCity,Houston>, <KansasCity,Tulsa>, <KansasCity,Minneapolis>, <KansasCity,Denver>, <KansasCity,Chicago>, <KansasCity,Indianapolis>, <KansasCity,Detroit>, <KansasCity,StLouis>, <KansasCity,Nashville>, <KansasCity,Cleveland>, <KansasCity,NewYork>, <KansasCity,Albany>, <KansasCity,Charlotte>, <KansasCity,NewOrleans>, <KansasCity,Boston>, <KansasCity,Atlanta>, <KansasCity,Miami>, <KansasCity,WashingtonDC>, <Denver,Seattle>, <Denver,LosAngeles>, <Denver,SanFrancisco>, <Denver,LasVegas>, <Denver,SaltLakeCity>, <Denver,ElPaso>, <Denver,Dallas>, <Denver,Houston>, <Denver,Tulsa>, <Denver,Minneapolis>, <Denver,KansasCity>, <Denver,Chicago>, <Denver,Indianapolis>, <Denver,Detroit>, <Denver,StLouis>, <Denver,Nashville>, <Denver,Cleveland>, <Denver,NewYork>, <Denver,Albany>, <Denver,Charlotte>, <Denver,NewOrleans>, <Denver,Boston>, <Denver,Atlanta>, <Denver,Miami>, <Denver,WashingtonDC>, <Chicago,Seattle>, <Chicago,LosAngeles>, <Chicago,SanFrancisco>, <Chicago,LasVegas>, <Chicago,SaltLakeCity>, <Chicago,ElPaso>, <Chicago,Dallas>, <Chicago,Houston>, <Chicago,Tulsa>, <Chicago,Minneapolis>, <Chicago,KansasCity>, <Chicago,Denver>, <Chicago,Indianapolis>, <Chicago,Detroit>, <Chicago,StLouis>, <Chicago,Nashville>, <Chicago,Cleveland>, <Chicago,NewYork>, <Chicago,Albany>, <Chicago,Charlotte>, <Chicago,NewOrleans>, <Chicago,Boston>, <Chicago,Atlanta>, <Chicago,Miami>, <Chicago,WashingtonDC>, <Indianapolis,Seattle>, <Indianapolis,LosAngeles>, <Indianapolis,SanFrancisco>, <Indianapolis,LasVegas>, <Indianapolis,SaltLakeCity>, <Indianapolis,ElPaso>, <Indianapolis,Dallas>, <Indianapolis,Houston>, <Indianapolis,Tulsa>, <Indianapolis,Minneapolis>, <Indianapolis,KansasCity>, <Indianapolis,Denver>, <Indianapolis,Chicago>, <Indianapolis,Detroit>, <Indianapolis,StLouis>, <Indianapolis,Nashville>, <Indianapolis,Cleveland>, <Indianapolis,NewYork>, <Indianapolis,Albany>, <Indianapolis,Charlotte>, <Indianapolis,NewOrleans>, <Indianapolis,Boston>, <Indianapolis,Atlanta>, <Indianapolis,Miami>, <Indianapolis,WashingtonDC>, <Detroit,Seattle>, <Detroit,LosAngeles>, <Detroit,SanFrancisco>, <Detroit,LasVegas>, <Detroit,SaltLakeCity>, <Detroit,ElPaso>, <Detroit,Dallas>, <Detroit,Houston>, <Detroit,Tulsa>, <Detroit,Minneapolis>, <Detroit,KansasCity>, <Detroit,Denver>, <Detroit,Chicago>, <Detroit,Indianapolis>, <Detroit,StLouis>, <Detroit,Nashville>, <Detroit,Cleveland>, <Detroit,NewYork>, <Detroit,Albany>, <Detroit,Charlotte>, <Detroit,NewOrleans>, <Detroit,Boston>, <Detroit,Atlanta>, <Detroit,Miami>, <Detroit,WashingtonDC>, <StLouis,Seattle>, <StLouis,LosAngeles>, <StLouis,SanFrancisco>, <StLouis,LasVegas>, <StLouis,SaltLakeCity>, <StLouis,ElPaso>, <StLouis,Dallas>, <StLouis,Houston>, <StLouis,Tulsa>, <StLouis,Minneapolis>, <StLouis,KansasCity>, <StLouis,Denver>, <StLouis,Chicago>, <StLouis,Indianapolis>, <StLouis,Detroit>, <StLouis,Nashville>, <StLouis,Cleveland>, <StLouis,NewYork>, <StLouis,Albany>, <StLouis,Charlotte>, <StLouis,NewOrleans>, <StLouis,Boston>, <StLouis,Atlanta>, <StLouis,Miami>, <StLouis,WashingtonDC>, <Nashville,Seattle>, <Nashville,LosAngeles>, <Nashville,SanFrancisco>, <Nashville,LasVegas>, <Nashville,SaltLakeCity>, <Nashville,ElPaso>, <Nashville,Dallas>, <Nashville,Houston>, <Nashville,Tulsa>, <Nashville,Minneapolis>, <Nashville,KansasCity>, <Nashville,Denver>, <Nashville,Chicago>, <Nashville,Indianapolis>, <Nashville,Detroit>, <Nashville,StLouis>, <Nashville,Cleveland>, <Nashville,NewYork>, <Nashville,Albany>, <Nashville,Charlotte>, <Nashville,NewOrleans>, <Nashville,Boston>, <Nashville,Atlanta>, <Nashville,Miami>, <Nashville,WashingtonDC>, <Cleveland,Seattle>, <Cleveland,LosAngeles>, <Cleveland,SanFrancisco>, <Cleveland,LasVegas>, <Cleveland,SaltLakeCity>, <Cleveland,ElPaso>, <Cleveland,Dallas>, <Cleveland,Houston>, <Cleveland,Tulsa>, <Cleveland,Minneapolis>, <Cleveland,KansasCity>, <Cleveland,Denver>, <Cleveland,Chicago>, <Cleveland,Indianapolis>, <Cleveland,Detroit>, <Cleveland,StLouis>, <Cleveland,Nashville>, <Cleveland,NewYork>, <Cleveland,Albany>, <Cleveland,Charlotte>, <Cleveland,NewOrleans>, <Cleveland,Boston>, <Cleveland,Atlanta>, <Cleveland,Miami>, <Cleveland,WashingtonDC>, <NewYork,Seattle>, <NewYork,LosAngeles>, <NewYork,SanFrancisco>, <NewYork,LasVegas>, <NewYork,SaltLakeCity>, <NewYork,ElPaso>, <NewYork,Dallas>, <NewYork,Houston>, <NewYork,Tulsa>, <NewYork,Minneapolis>, <NewYork,KansasCity>, <NewYork,Denver>, <NewYork,Chicago>, <NewYork,Indianapolis>, <NewYork,Detroit>, <NewYork,StLouis>, <NewYork,Nashville>, <NewYork,Cleveland>, <NewYork,Albany>, <NewYork,Charlotte>, <NewYork,NewOrleans>, <NewYork,Boston>, <NewYork,Atlanta>, <NewYork,Miami>, <NewYork,WashingtonDC>, <Albany,Seattle>, <Albany,LosAngeles>, <Albany,SanFrancisco>, <Albany,LasVegas>, <Albany,SaltLakeCity>, <Albany,ElPaso>, <Albany,Dallas>, <Albany,Houston>, <Albany,Tulsa>, <Albany,Minneapolis>, <Albany,KansasCity>, <Albany,Denver>, <Albany,Chicago>, <Albany,Indianapolis>, <Albany,Detroit>, <Albany,StLouis>, <Albany,Nashville>, <Albany,Cleveland>, <Albany,NewYork>, <Albany,Charlotte>, <Albany,NewOrleans>, <Albany,Boston>, <Albany,Atlanta>, <Albany,Miami>, <Albany,WashingtonDC>, <Charlotte,Seattle>, <Charlotte,LosAngeles>, <Charlotte,SanFrancisco>, <Charlotte,LasVegas>, <Charlotte,SaltLakeCity>, <Charlotte,ElPaso>, <Charlotte,Dallas>, <Charlotte,Houston>, <Charlotte,Tulsa>, <Charlotte,Minneapolis>, <Charlotte,KansasCity>, <Charlotte,Denver>, <Charlotte,Chicago>, <Charlotte,Indianapolis>, <Charlotte,Detroit>, <Charlotte,StLouis>, <Charlotte,Nashville>, <Charlotte,Cleveland>, <Charlotte,NewYork>, <Charlotte,Albany>, <Charlotte,NewOrleans>, <Charlotte,Boston>, <Charlotte,Atlanta>, <Charlotte,Miami>, <Charlotte,WashingtonDC>, <NewOrleans,Seattle>, <NewOrleans,LosAngeles>, <NewOrleans,SanFrancisco>, <NewOrleans,LasVegas>, <NewOrleans,SaltLakeCity>, <NewOrleans,ElPaso>, <NewOrleans,Dallas>, <NewOrleans,Houston>, <NewOrleans,Tulsa>, <NewOrleans,Minneapolis>, <NewOrleans,KansasCity>, <NewOrleans,Denver>, <NewOrleans,Chicago>, <NewOrleans,Indianapolis>, <NewOrleans,Detroit>, <NewOrleans,StLouis>, <NewOrleans,Nashville>, <NewOrleans,Cleveland>, <NewOrleans,NewYork>, <NewOrleans,Albany>, <NewOrleans,Charlotte>, <NewOrleans,Boston>, <NewOrleans,Atlanta>, <NewOrleans,Miami>, <NewOrleans,WashingtonDC>, <Boston,Seattle>, <Boston,LosAngeles>, <Boston,SanFrancisco>, <Boston,LasVegas>, <Boston,SaltLakeCity>, <Boston,ElPaso>, <Boston,Dallas>, <Boston,Houston>, <Boston,Tulsa>, <Boston,Minneapolis>, <Boston,KansasCity>, <Boston,Denver>, <Boston,Chicago>, <Boston,Indianapolis>, <Boston,Detroit>, <Boston,StLouis>, <Boston,Nashville>, <Boston,Cleveland>, <Boston,NewYork>, <Boston,Albany>, <Boston,Charlotte>, <Boston,NewOrleans>, <Boston,Atlanta>, <Boston,Miami>, <Boston,WashingtonDC>, <Atlanta,Seattle>, <Atlanta,LosAngeles>, <Atlanta,SanFrancisco>, <Atlanta,LasVegas>, <Atlanta,SaltLakeCity>, <Atlanta,ElPaso>, <Atlanta,Dallas>, <Atlanta,Houston>, <Atlanta,Tulsa>, <Atlanta,Minneapolis>, <Atlanta,KansasCity>, <Atlanta,Denver>, <Atlanta,Chicago>, <Atlanta,Indianapolis>, <Atlanta,Detroit>, <Atlanta,StLouis>, <Atlanta,Nashville>, <Atlanta,Cleveland>, <Atlanta,NewYork>, <Atlanta,Albany>, <Atlanta,Charlotte>, <Atlanta,NewOrleans>, <Atlanta,Boston>, <Atlanta,Miami>, <Atlanta,WashingtonDC>, <Miami,Seattle>, <Miami,LosAngeles>, <Miami,SanFrancisco>, <Miami,LasVegas>, <Miami,SaltLakeCity>, <Miami,ElPaso>, <Miami,Dallas>, <Miami,Houston>, <Miami,Tulsa>, <Miami,Minneapolis>, <Miami,KansasCity>, <Miami,Denver>, <Miami,Chicago>, <Miami,Indianapolis>, <Miami,Detroit>, <Miami,StLouis>, <Miami,Nashville>, <Miami,Cleveland>, <Miami,NewYork>, <Miami,Albany>, <Miami,Charlotte>, <Miami,NewOrleans>, <Miami,Boston>, <Miami,Atlanta>, <Miami,WashingtonDC>, <WashingtonDC,Seattle>, <WashingtonDC,LosAngeles>, <WashingtonDC,SanFrancisco>, <WashingtonDC,LasVegas>, <WashingtonDC,SaltLakeCity>, <WashingtonDC,ElPaso>, <WashingtonDC,Dallas>, <WashingtonDC,Houston>, <WashingtonDC,Tulsa>, <WashingtonDC,Minneapolis>, <WashingtonDC,KansasCity>, <WashingtonDC,Denver>, <WashingtonDC,Chicago>, <WashingtonDC,Indianapolis>, <WashingtonDC,Detroit>, <WashingtonDC,StLouis>, <WashingtonDC,Nashville>, <WashingtonDC,Cleveland>, <WashingtonDC,NewYork>, <WashingtonDC,Albany>, <WashingtonDC,Charlotte>, <WashingtonDC,NewOrleans>, <WashingtonDC,Boston>, <WashingtonDC,Atlanta>, <WashingtonDC,Miami>};

Volume = [10 20 30 40 50 60 70 80 90 100 110 120 130 140 150 160 170 180 190 200 210 220 230 240 250 10 10 20 30 40 50 60 70 80 90 100 110 120 130 140 150 160 170 180 190 200 210 220 230 240 20 10 10 20 30 40 50 60 70 80 90 100 110 120 130 140 150 160 170 180 190 200 210 220 230 30 20 10 10 20 30 40 50 60 70 80 90 100 110 120 130 140 150 160 170 180 190 200 210 220 40 30 20 10 10 20 30 40 50 60 70 80 90 100 110 120 130 140 150 160 170 180 190 200 210 50 40 30 20 10 10 20 30 40 50 60 70 80 90 100 110 120 130 140 150 160 170 180 190 200 60 50 40 30 20 10 10 20 30 40 50 60 70 80 90 100 110 120 130 140 150 160 170 180 190 70 60 50 40 30 20 10 10 20 30 40 50 60 70 80 90 100 110 120 130 140 150 160 170 180 80 70 60 50 40 30 20 10 10 20 30 40 50 60 70 80 90 100 110 120 130 140 150 160 170 90 80 70 60 50 40 30 20 10 10 20 30 40 50 60 70 80 90 100 110 120 130 140 150 160 100 90 80 70 60 50 40 30 20 10 10 20 30 40 50 60 70 80 90 100 110 120 130 140 150 110 100 90 80 70 60 50 40 30 20 10 10 20 30 40 50 60 70 80 90 100 110 120 130 140 120 110 100 90 80 70 60 50 40 30 20 10 10 20 30 40 50 60 70 80 90 100 110 120 130 130 120 110 100 90 80 70 60 50 40 30 20 10 10 20 30 40 50 60 70 80 90 100 110 120 140 130 120 110 100 90 80 70 60 50 40 30 20 10 10 20 30 40 50 60 70 80 90 100 110 150 140 130 120 110 100 90 80 70 60 50 40 30 20 10 10 20 30 40 50 60 70 80 90 100 160 150 140 130 120 110 100 90 80 70 60 50 40 30 20 10 10 20 30 40 50 60 70 80 90 170 160 150 140 130 120 110 100 90 80 70 60 50 40 30 20 10 10 20 30 40 50 60 70 80 180 170 160 150 140 130 120 110 100 90 80 70 60 50 40 30 20 10 10 20 30 40 50 60 70 190 180 170 160 150 140 130 120 110 100 90 80 70 60 50 40 30 20 10 10 20 30 40 50 60 200 190 180 170 160 150 140 130 120 110 100 90 80 70 60 50 40 30 20 10 10 20 30 40 50 210 200 190 180 170 160 150 140 130 120 110 100 90 80 70 60 50 40 30 20 10 10 20 30 40 220 210 200 190 180 170 160 150 140 130 120 110 100 90 80 70 60 50 40 30 20 10 10 20 30 230 220 210 200 190 180 170 160 150 140 130 120 110 100 90 80 70 60 50 40 30 20 10 10 20 240 230 220 210 200 190 180 170 160 150 140 130 120 110 100 90 80 70 60 50 40 30 20 10 10 250 240 230 220 210 200 190 180 170 160 150 140 130 120 110 100 90 80 70 60 50 40 30 20 10];
